
n_res = 8;
rcap = [26, 25, 26, 26, 664, 706, 606, 746];
rtype = [1, 1, 1, 1, 2, 2, 2, 2];
n_tasks = 50;
modes =  [{1, 2, 3, 4, 5, 6}, {7, 8, 9, 10, 11, 12}, {13, 14, 15, 16, 17, 18}, {19, 20, 21, 22, 23, 24}, {25, 26, 27, 28, 29, 30}, {31, 32, 33, 34, 35, 36}, {37, 38, 39, 40, 41, 42}, {43, 44, 45, 46, 47, 48}, {49, 50, 51, 52, 53, 54}, {55, 56, 57, 58, 59, 60}, {61, 62, 63, 64, 65, 66}, {67, 68, 69, 70, 71, 72}, {73, 74, 75, 76, 77, 78}, {79, 80, 81, 82, 83, 84}, {85, 86, 87, 88, 89, 90}, {91, 92, 93, 94, 95, 96}, {97, 98, 99, 100, 101, 102}, {103, 104, 105, 106, 107, 108}, {109, 110, 111, 112, 113, 114}, {115, 116, 117, 118, 119, 120}, {121, 122, 123, 124, 125, 126}, {127, 128, 129, 130, 131, 132}, {133, 134, 135, 136, 137, 138}, {139, 140, 141, 142, 143, 144}, {145, 146, 147, 148, 149, 150}, {151, 152, 153, 154, 155, 156}, {157, 158, 159, 160, 161, 162}, {163, 164, 165, 166, 167, 168}, {169, 170, 171, 172, 173, 174}, {175, 176, 177, 178, 179, 180}, {181, 182, 183, 184, 185, 186}, {187, 188, 189, 190, 191, 192}, {193, 194, 195, 196, 197, 198}, {199, 200, 201, 202, 203, 204}, {205, 206, 207, 208, 209, 210}, {211, 212, 213, 214, 215, 216}, {217, 218, 219, 220, 221, 222}, {223, 224, 225, 226, 227, 228}, {229, 230, 231, 232, 233, 234}, {235, 236, 237, 238, 239, 240}, {241, 242, 243, 244, 245, 246}, {247, 248, 249, 250, 251, 252}, {253, 254, 255, 256, 257, 258}, {259, 260, 261, 262, 263, 264}, {265, 266, 267, 268, 269, 270}, {271, 272, 273, 274, 275, 276}, {277, 278, 279, 280, 281, 282}, {283, 284, 285, 286, 287, 288}, {289, 290, 291, 292, 293, 294}, {295, 296, 297, 298, 299, 300}];
succ =  [{26, 22, 17, 15, 10, 9, 5}, {23, 22, 19, 16, 15, 6}, {26, 23, 19, 18, 17, 12, 9}, {29, 25, 24, 23, 22, 20, 18, 17}, {27, 25, 24, 19, 12}, {26, 17, 9}, {35, 27, 24, 22, 20, 15}, {29, 25, 24, 22, 21, 17}, {35, 29, 27, 25, 24, 21}, {37, 35, 28, 27, 25, 23, 19}, {27, 25, 22, 21, 20}, {50, 35, 34, 29, 21, 20}, {50, 49, 48, 47, 35, 34, 32, 31, 24}, {50, 35, 33, 27, 21}, {30, 25, 21}, {50, 49, 43, 37, 36, 33, 27}, {49, 48, 35, 32, 28, 27}, {50, 49, 48, 46, 45, 43, 42, 41, 37, 36, 35, 33}, {49, 48, 47, 42, 41, 32, 31, 30}, {48, 47, 44, 39, 33, 32, 28}, {49, 48, 37, 36, 32, 28}, {48, 47, 43, 42, 33, 32, 31}, {47, 45, 42, 41, 31, 30}, {44, 37, 36, 30, 28}, {50, 47, 41, 33, 31}, {44, 37, 28}, {47, 46, 45, 42, 39, 38, 34}, {46, 43, 42, 41, 40, 38}, {42, 41, 30}, {43, 40, 38}, {44, 36}, {45, 38}, {40, 38}, {44, 41}, {39, 38}, {39}, {39}, {}, {}, {}, {}, {}, {}, {}, {}, {}, {}, {}, {}, {}];
n_opt = 300;
dur = [5, 8, 10, 21, 24, 27, 6, 7, 13, 14, 15, 25, 5, 6, 8, 10, 11, 21, 7, 9, 13, 16, 25, 26, 8, 9, 17, 18, 29, 30, 2, 13, 14, 26, 27, 28, 9, 11, 12, 16, 20, 29, 1, 16, 18, 19, 20, 23, 6, 9, 10, 11, 16, 19, 2, 3, 12, 16, 17, 30, 5, 11, 18, 24, 25, 29, 3, 10, 16, 18, 23, 26, 6, 8, 12, 16, 24, 29, 7, 14, 17, 21, 24, 27, 3, 4, 10, 11, 12, 25, 3, 7, 10, 16, 19, 30, 6, 8, 18, 22, 23, 24, 3, 4, 7, 9, 10, 11, 5, 7, 13, 14, 24, 25, 6, 7, 13, 14, 18, 20, 4, 8, 14, 21, 28, 30, 7, 9, 11, 15, 17, 21, 5, 10, 12, 14, 16, 24, 2, 5, 6, 7, 10, 23, 3, 20, 23, 25, 26, 28, 1, 9, 20, 28, 29, 30, 2, 3, 6, 12, 23, 27, 9, 12, 18, 20, 21, 28, 5, 9, 11, 16, 20, 24, 8, 14, 25, 27, 28, 29, 4, 9, 15, 28, 29, 30, 3, 4, 5, 20, 25, 27, 3, 13, 18, 19, 21, 27, 3, 4, 7, 11, 21, 25, 1, 5, 10, 13, 23, 29, 11, 14, 17, 18, 22, 29, 4, 5, 7, 9, 25, 26, 2, 4, 11, 24, 25, 29, 19, 25, 27, 28, 29, 30, 9, 21, 22, 25, 26, 30, 2, 6, 9, 17, 18, 19, 4, 11, 12, 16, 20, 21, 4, 6, 12, 14, 16, 20, 2, 3, 9, 20, 22, 23, 4, 13, 16, 21, 26, 27, 4, 9, 10, 12, 13, 24, 3, 4, 18, 20, 22, 24, 4, 20, 21, 22, 25, 29, 1, 2, 7, 8, 22, 24, 4, 9, 19, 23, 24, 25];
rreq = [|2, 2, 2, 2, 2, 2, 4, 4, 3, 3, 2, 1, 3, 2, 2, 1, 1, 1, 4, 4, 4, 3, 2, 2, 3, 2, 2, 2, 1, 1, 3, 2, 2, 2, 2, 2, 4, 4, 4, 3, 3, 2, 2, 1, 1, 1, 1, 1, 5, 4, 4, 3, 2, 2, 1, 1, 1, 1, 1, 1, 4, 3, 3, 3, 3, 3, 3, 3, 3, 2, 2, 2, 4, 4, 4, 3, 2, 2, 5, 3, 3, 2, 2, 1, 4, 4, 4, 3, 3, 3, 4, 4, 3, 3, 3, 2, 2, 2, 2, 2, 2, 2, 3, 2, 2, 2, 2, 2, 4, 3, 3, 3, 2, 2, 5, 4, 4, 4, 4, 4, 2, 2, 2, 2, 2, 2, 5, 3, 3, 3, 1, 1, 2, 2, 2, 2, 2, 2, 3, 3, 3, 3, 3, 3, 1, 1, 1, 1, 1, 1, 5, 4, 3, 3, 2, 1, 5, 4, 4, 4, 3, 3, 4, 3, 3, 3, 2, 2, 1, 1, 1, 1, 1, 1, 2, 2, 2, 2, 1, 1, 5, 5, 5, 5, 5, 5, 3, 3, 3, 3, 3, 3, 5, 5, 5, 5, 5, 5, 2, 2, 2, 2, 2, 2, 4, 4, 4, 3, 2, 2, 3, 2, 2, 2, 2, 2, 2, 2, 2, 2, 2, 2, 3, 3, 3, 2, 2, 2, 4, 3, 3, 2, 2, 1, 4, 3, 3, 3, 2, 2, 3, 3, 3, 3, 3, 3, 2, 2, 2, 2, 2, 2, 4, 3, 2, 2, 2, 1, 3, 3, 3, 3, 3, 3, 4, 4, 4, 4, 4, 4, 1, 1, 1, 1, 1, 1, 2, 2, 2, 2, 2, 2, 2, 2, 2, 2, 2, 2, 2, 2, 2, 2, 2, 2, 3, 2, 2, 2, 1, 1
 |1, 1, 1, 1, 1, 1, 3, 3, 3, 2, 2, 2, 3, 3, 3, 3, 3, 3, 2, 2, 2, 2, 2, 2, 4, 4, 4, 4, 4, 4, 4, 4, 4, 4, 4, 4, 3, 3, 2, 2, 1, 1, 4, 4, 4, 4, 3, 3, 4, 3, 3, 2, 2, 2, 4, 3, 3, 2, 1, 1, 4, 4, 4, 4, 4, 4, 3, 3, 3, 3, 3, 3, 3, 3, 2, 2, 2, 1, 3, 3, 3, 3, 2, 2, 4, 4, 4, 4, 4, 4, 2, 1, 1, 1, 1, 1, 1, 1, 1, 1, 1, 1, 3, 2, 2, 2, 1, 1, 4, 3, 3, 3, 3, 3, 2, 1, 1, 1, 1, 1, 5, 4, 3, 3, 2, 2, 1, 1, 1, 1, 1, 1, 3, 2, 2, 1, 1, 1, 2, 1, 1, 1, 1, 1, 4, 3, 3, 3, 3, 3, 5, 4, 3, 2, 1, 1, 5, 4, 4, 4, 3, 3, 5, 4, 4, 3, 3, 3, 4, 3, 3, 3, 2, 2, 3, 3, 3, 3, 3, 3, 5, 4, 3, 3, 3, 2, 4, 4, 3, 2, 1, 1, 3, 2, 2, 2, 1, 1, 3, 3, 3, 3, 2, 2, 3, 3, 3, 2, 1, 1, 4, 3, 3, 3, 3, 3, 4, 3, 3, 3, 1, 1, 4, 4, 3, 2, 2, 1, 5, 4, 4, 3, 3, 3, 3, 3, 3, 2, 2, 2, 5, 4, 4, 4, 4, 4, 5, 4, 3, 3, 1, 1, 4, 4, 4, 3, 2, 2, 2, 1, 1, 1, 1, 1, 1, 1, 1, 1, 1, 1, 3, 2, 2, 2, 2, 2, 2, 2, 2, 1, 1, 1, 5, 4, 3, 3, 2, 2, 4, 4, 4, 4, 4, 4, 5, 5, 5, 5, 5, 5
 |5, 4, 4, 4, 3, 3, 5, 4, 3, 3, 1, 1, 3, 3, 3, 3, 3, 3, 4, 4, 4, 4, 4, 4, 4, 4, 3, 2, 1, 1, 3, 3, 3, 3, 3, 3, 2, 2, 2, 2, 2, 2, 5, 3, 3, 3, 2, 1, 3, 3, 3, 3, 3, 3, 3, 2, 2, 2, 1, 1, 4, 4, 4, 4, 4, 4, 3, 2, 2, 1, 1, 1, 2, 1, 1, 1, 1, 1, 3, 3, 3, 2, 1, 1, 3, 3, 3, 2, 1, 1, 2, 2, 2, 2, 2, 2, 3, 3, 3, 3, 3, 3, 5, 4, 4, 4, 4, 4, 4, 3, 3, 3, 2, 2, 4, 4, 4, 3, 3, 3, 3, 2, 2, 2, 2, 2, 3, 2, 2, 2, 2, 2, 4, 4, 4, 4, 4, 4, 3, 3, 3, 3, 3, 3, 5, 4, 4, 3, 3, 3, 4, 4, 4, 4, 4, 4, 2, 1, 1, 1, 1, 1, 4, 3, 3, 3, 2, 1, 4, 3, 3, 3, 2, 2, 5, 5, 5, 5, 5, 5, 3, 2, 2, 2, 1, 1, 3, 3, 3, 3, 3, 3, 4, 4, 4, 4, 4, 4, 1, 1, 1, 1, 1, 1, 2, 2, 2, 2, 1, 1, 4, 4, 4, 3, 3, 3, 4, 4, 3, 3, 2, 2, 4, 3, 3, 3, 3, 3, 4, 3, 3, 3, 3, 3, 1, 1, 1, 1, 1, 1, 4, 3, 3, 3, 3, 3, 5, 4, 3, 2, 1, 1, 3, 3, 3, 3, 2, 2, 3, 3, 2, 2, 2, 1, 5, 4, 4, 4, 3, 3, 1, 1, 1, 1, 1, 1, 5, 4, 4, 4, 4, 4, 2, 2, 2, 2, 2, 2, 4, 4, 4, 4, 3, 3, 1, 1, 1, 1, 1, 1
 |2, 1, 1, 1, 1, 1, 3, 3, 3, 3, 3, 3, 1, 1, 1, 1, 1, 1, 4, 4, 4, 4, 4, 4, 5, 4, 4, 4, 4, 4, 2, 2, 2, 2, 1, 1, 1, 1, 1, 1, 1, 1, 1, 1, 1, 1, 1, 1, 1, 1, 1, 1, 1, 1, 2, 2, 2, 2, 2, 2, 4, 3, 3, 3, 2, 2, 3, 3, 3, 3, 2, 2, 1, 1, 1, 1, 1, 1, 1, 1, 1, 1, 1, 1, 4, 4, 4, 4, 4, 4, 5, 4, 4, 4, 4, 4, 4, 3, 3, 2, 2, 2, 3, 3, 3, 3, 3, 3, 4, 3, 3, 2, 2, 1, 4, 3, 3, 3, 3, 3, 3, 3, 3, 3, 2, 2, 4, 3, 3, 3, 3, 3, 4, 3, 3, 3, 3, 3, 1, 1, 1, 1, 1, 1, 1, 1, 1, 1, 1, 1, 4, 4, 4, 4, 4, 4, 3, 3, 3, 3, 3, 3, 3, 2, 2, 2, 1, 1, 2, 2, 2, 1, 1, 1, 4, 3, 3, 2, 1, 1, 3, 3, 3, 2, 1, 1, 5, 4, 4, 4, 4, 4, 2, 2, 2, 2, 2, 2, 2, 2, 2, 2, 1, 1, 4, 3, 3, 3, 3, 3, 4, 4, 4, 4, 4, 4, 3, 2, 2, 2, 2, 2, 2, 2, 2, 2, 2, 2, 2, 2, 2, 2, 2, 2, 3, 2, 2, 1, 1, 1, 4, 4, 3, 2, 1, 1, 4, 3, 3, 2, 2, 1, 5, 4, 4, 3, 3, 3, 4, 4, 3, 3, 2, 2, 5, 5, 5, 5, 5, 5, 5, 4, 4, 3, 3, 3, 3, 3, 3, 3, 3, 3, 1, 1, 1, 1, 1, 1, 5, 4, 3, 3, 3, 2, 3, 3, 3, 2, 1, 1
 |24, 24, 22, 20, 20, 18, 26, 26, 24, 21, 19, 18, 27, 23, 23, 21, 18, 16, 15, 10, 10, 5, 5, 1, 21, 18, 14, 11, 7, 2, 21, 20, 20, 20, 19, 19, 27, 26, 23, 21, 19, 19, 12, 11, 10, 8, 6, 5, 17, 16, 16, 16, 15, 14, 14, 13, 13, 12, 11, 11, 9, 9, 8, 7, 6, 6, 10, 10, 10, 10, 10, 10, 18, 18, 17, 15, 14, 14, 27, 23, 19, 15, 13, 7, 17, 16, 16, 15, 15, 15, 25, 23, 22, 22, 21, 20, 28, 25, 23, 22, 17, 16, 27, 23, 17, 15, 12, 10, 26, 25, 20, 13, 9, 9, 29, 29, 29, 28, 28, 28, 26, 24, 22, 19, 15, 13, 12, 11, 10, 8, 6, 4, 14, 14, 12, 11, 9, 7, 29, 28, 27, 26, 25, 25, 14, 13, 12, 12, 12, 11, 13, 11, 11, 9, 9, 7, 19, 16, 12, 10, 6, 2, 30, 28, 26, 24, 21, 20, 25, 24, 20, 20, 18, 15, 23, 20, 19, 18, 17, 14, 19, 18, 17, 17, 15, 15, 13, 11, 11, 10, 9, 9, 22, 19, 15, 13, 10, 7, 28, 24, 16, 12, 6, 3, 27, 23, 16, 16, 10, 9, 18, 15, 11, 8, 5, 3, 23, 20, 16, 13, 11, 6, 1, 1, 1, 1, 1, 1, 29, 20, 17, 14, 10, 8, 26, 26, 24, 22, 21, 19, 27, 21, 17, 14, 11, 7, 14, 13, 13, 13, 12, 12, 26, 21, 15, 11, 9, 1, 19, 17, 16, 12, 12, 8, 13, 12, 12, 10, 9, 8, 27, 24, 22, 19, 19, 17, 15, 13, 10, 9, 5, 4, 25, 23, 21, 16, 13, 11, 7, 7, 7, 7, 6, 6, 23, 21, 20, 18, 16, 14
 |26, 25, 23, 22, 21, 21, 27, 25, 24, 21, 21, 20, 16, 16, 16, 16, 16, 16, 30, 28, 27, 24, 23, 21, 25, 23, 19, 14, 9, 5, 13, 12, 12, 11, 11, 10, 23, 22, 20, 19, 18, 18, 10, 10, 10, 10, 10, 10, 29, 26, 25, 24, 23, 21, 8, 6, 6, 5, 3, 2, 17, 16, 16, 15, 13, 12, 24, 21, 20, 20, 18, 17, 20, 20, 17, 13, 11, 6, 23, 20, 18, 18, 14, 12, 18, 18, 18, 18, 18, 18, 17, 17, 15, 10, 10, 6, 8, 7, 6, 5, 5, 4, 18, 16, 14, 11, 10, 7, 14, 12, 12, 10, 9, 9, 21, 19, 19, 15, 13, 10, 26, 21, 19, 13, 11, 6, 18, 16, 14, 13, 11, 8, 22, 22, 21, 19, 18, 18, 27, 25, 20, 18, 16, 13, 28, 24, 23, 19, 19, 16, 23, 18, 18, 15, 10, 10, 25, 19, 16, 13, 12, 8, 15, 15, 14, 14, 14, 13, 19, 18, 12, 8, 7, 2, 28, 22, 17, 15, 12, 8, 21, 20, 18, 16, 15, 15, 20, 20, 18, 17, 17, 15, 24, 21, 19, 19, 16, 14, 29, 27, 27, 26, 24, 23, 16, 15, 12, 12, 8, 8, 9, 8, 8, 8, 6, 6, 18, 17, 17, 15, 15, 14, 24, 20, 18, 14, 13, 9, 5, 4, 4, 4, 4, 4, 15, 12, 11, 11, 10, 8, 29, 26, 22, 20, 17, 13, 28, 26, 25, 24, 23, 20, 7, 6, 5, 4, 2, 1, 26, 25, 22, 20, 17, 15, 27, 26, 25, 24, 23, 23, 24, 24, 23, 23, 22, 22, 23, 21, 21, 20, 19, 18, 23, 20, 14, 10, 5, 5, 22, 21, 21, 21, 21, 21, 9, 6, 5, 4, 3, 2
 |21, 20, 14, 9, 9, 4, 18, 14, 12, 9, 5, 1, 7, 7, 7, 6, 6, 6, 25, 17, 15, 12, 7, 5, 27, 26, 26, 25, 25, 24, 26, 22, 19, 18, 14, 10, 24, 23, 21, 17, 14, 9, 24, 22, 21, 20, 18, 16, 4, 4, 4, 3, 3, 3, 17, 15, 12, 8, 8, 4, 11, 9, 9, 7, 7, 6, 18, 14, 12, 11, 7, 6, 9, 7, 7, 5, 5, 4, 26, 26, 26, 25, 24, 24, 28, 22, 19, 16, 11, 9, 14, 13, 11, 8, 6, 6, 21, 17, 15, 15, 11, 10, 27, 27, 27, 26, 26, 26, 22, 18, 17, 16, 12, 12, 25, 23, 22, 19, 18, 17, 19, 17, 15, 14, 11, 11, 17, 17, 17, 16, 16, 15, 5, 5, 5, 4, 3, 3, 19, 18, 17, 16, 16, 14, 15, 13, 12, 12, 10, 10, 24, 20, 17, 15, 13, 9, 10, 8, 7, 6, 5, 2, 22, 21, 21, 20, 18, 18, 23, 22, 22, 21, 20, 20, 25, 24, 22, 22, 21, 19, 11, 10, 9, 8, 7, 6, 30, 23, 20, 15, 15, 11, 19, 16, 14, 12, 8, 6, 24, 24, 24, 24, 24, 24, 8, 8, 6, 6, 4, 4, 25, 18, 17, 12, 10, 7, 23, 17, 14, 13, 10, 4, 21, 17, 16, 10, 10, 7, 26, 22, 18, 15, 13, 5, 15, 15, 15, 14, 14, 14, 6, 5, 4, 3, 2, 1, 12, 11, 9, 6, 5, 4, 24, 21, 17, 15, 10, 6, 18, 15, 14, 12, 8, 2, 28, 27, 27, 25, 25, 24, 18, 18, 18, 18, 18, 18, 10, 8, 7, 6, 5, 3, 11, 10, 8, 5, 3, 2, 24, 20, 19, 13, 9, 4, 25, 23, 22, 19, 18, 17
 |25, 19, 17, 11, 11, 6, 22, 18, 16, 10, 7, 4, 11, 11, 10, 10, 10, 9, 21, 21, 21, 21, 21, 21, 25, 25, 25, 25, 25, 25, 25, 22, 22, 21, 17, 16, 30, 29, 27, 27, 25, 24, 23, 22, 19, 18, 16, 14, 28, 26, 25, 24, 24, 22, 8, 8, 8, 8, 7, 7, 20, 16, 13, 8, 5, 3, 9, 8, 8, 6, 6, 5, 29, 25, 22, 17, 13, 11, 28, 28, 28, 27, 26, 26, 27, 24, 21, 21, 16, 16, 9, 8, 8, 7, 6, 6, 22, 21, 21, 21, 21, 21, 23, 22, 21, 21, 21, 20, 10, 9, 9, 7, 6, 5, 2, 2, 2, 2, 2, 2, 28, 27, 26, 23, 22, 20, 29, 21, 16, 14, 7, 4, 24, 22, 19, 17, 17, 13, 23, 23, 23, 22, 22, 22, 15, 15, 14, 14, 13, 13, 11, 10, 10, 10, 10, 10, 27, 26, 26, 26, 26, 26, 30, 29, 28, 28, 27, 26, 17, 17, 13, 11, 8, 5, 26, 24, 21, 17, 17, 12, 30, 29, 29, 29, 29, 29, 14, 13, 12, 12, 12, 11, 26, 25, 24, 24, 23, 22, 26, 23, 18, 16, 9, 5, 7, 7, 7, 7, 7, 7, 12, 9, 8, 6, 5, 4, 16, 15, 14, 11, 7, 6, 11, 10, 10, 10, 10, 10, 26, 25, 25, 25, 24, 24, 9, 8, 7, 7, 6, 5, 22, 16, 14, 11, 7, 5, 24, 24, 24, 23, 23, 22, 22, 18, 17, 13, 8, 3, 28, 27, 27, 25, 24, 24, 27, 26, 25, 25, 23, 23, 28, 26, 26, 25, 24, 23, 3, 3, 2, 2, 2, 1, 10, 7, 7, 5, 3, 3, 22, 19, 17, 15, 13, 11, 25, 18, 17, 10, 7, 5|];